<number of tasks>
100

<cycle time>
1000

<order strength>
0.595


<task times>
1 268
2 33
3 262
4 131
5 261
6 80
7 178
8 332
9 76
10 48
11 122
12 109
13 85
14 117
15 124
16 80
17 264
18 50
19 54
20 41
21 161
22 189
23 105
24 289
25 64
26 272
27 28
28 200
29 45
30 139
31 108
32 318
33 90
34 161
35 51
36 81
37 127
38 128
39 123
40 188
41 41
42 69
43 48
44 314
45 100
46 185
47 278
48 106
49 172
50 140
51 66
52 160
53 59
54 153
55 26
56 252
57 135
58 205
59 176
60 164
61 162
62 209
63 172
64 129
65 25
66 160
67 277
68 45
69 103
70 42
71 222
72 291
73 118
74 204
75 132
76 145
77 124
78 126
79 265
80 318
81 141
82 87
83 67
84 21
85 64
86 249
87 128
88 97
89 336
90 205
91 144
92 82
93 64
94 174
95 168
96 302
97 235
98 149
99 352
100 156

<precedence relations>
1,39
2,31
3,25
4,25
5,25
6,25
7,9
7,10
7,13
7,14
8,11
8,12
8,15
8,20
9,31
10,93
11,25
12,25
13,15
13,18
13,21
13,29
14,16
14,17
14,19
14,20
14,23
15,39
16,31
17,25
18,25
19,24
19,25
19,26
20,27
20,38
20,57
20,59
21,22
21,23
21,24
22,39
23,39
24,31
25,28
25,30
25,32
25,33
25,34
25,35
25,36
25,37
25,38
26,75
27,29
27,30
28,39
29,39
30,39
31,39
31,40
31,41
31,42
31,43
31,44
31,45
31,46
32,39
33,47
33,57
33,66
34,48
34,67
34,71
34,72
35,93
36,59
36,72
36,76
36,78
37,39
38,66
39,49
39,50
39,51
39,52
39,53
39,54
40,54
40,55
40,57
40,65
40,72
41,56
41,61
41,62
42,70
42,71
43,86
43,87
44,86
45,58
45,65
45,71
45,86
46,87
46,92
47,54
47,55
47,86
48,77
48,78
48,91
49,60
49,61
50,60
51,69
51,70
51,86
52,91
53,58
53,70
53,78
53,90
54,78
55,59
56,59
56,63
57,58
57,73
57,76
58,93
59,75
60,62
60,63
61,67
61,72
61,74
62,93
63,64
63,65
63,66
63,67
63,68
63,69
64,93
65,75
66,70
66,71
66,72
66,73
66,74
67,73
67,77
68,70
68,73
69,71
69,72
70,93
71,93
72,75
73,75
74,75
74,76
74,77
74,78
75,79
75,80
75,81
75,82
75,83
75,84
75,85
76,86
76,87
78,92
79,93
80,87
83,88
84,89
84,90
85,91
85,92
86,88
87,89
87,94
88,90
88,91
88,92
89,93
92,94
93,95
93,96
93,97
93,98
93,99
93,100

<end>
